c ren 1 -> 1
c ren 2 -> 2
c ren 3 -> 3
c ren 4 -> 4
c ren 5 -> 5
c ren 7 -> 6
c ren 8 -> 7
c ren 9 -> 8
c ren 10 -> 9
c ren 11 -> 10
c ren 14 -> 11
c ren 16 -> 12
c ren 19 -> 13
c ren 20 -> 14
c ren 22 -> 15
c ren 25 -> 16
c ren 27 -> 17
c ren 30 -> 18
c ren 31 -> 19
c ren 33 -> 20
c ren 36 -> 21
c ren 38 -> 22
c ren 41 -> 23
c ren 47 -> 24
c ren 50 -> 25
c ren 52 -> 26
c ren 55 -> 27
c ren 57 -> 28
c ren 60 -> 29
c ren 61 -> 30
c ren 62 -> 31
c ren 63 -> 32
c ren 66 -> 33
c ren 67 -> 34
c ren 68 -> 35
c ren 71 -> 36
c ren 72 -> 37
c ren 73 -> 38
c ren 76 -> 39
c ren 77 -> 40
c ren 79 -> 41
c ren 82 -> 42
c ren 87 -> 43
c ren 93 -> 44
c ren 94 -> 45
c ren 96 -> 46
c ren 99 -> 47
c ren 101 -> 48
c ren 104 -> 49
c ren 108 -> 50
c ren 111 -> 51
c ren 113 -> 52
c ren 116 -> 53
c ren 118 -> 54
c ren 121 -> 55
c ren 122 -> 56
c ren 123 -> 57
c ren 126 -> 58
c ren 127 -> 59
c ren 128 -> 60
c ren 131 -> 61
c ren 133 -> 62
c ren 136 -> 63
c ren 138 -> 64
c ren 141 -> 65
c ren 145 -> 66
c ren 148 -> 67
c ren 150 -> 68
c ren 153 -> 69
c ren 155 -> 70
c ren 158 -> 71
c ren 165 -> 72
c ren 170 -> 73
c ren 174 -> 74
c ren 175 -> 75
c ren 179 -> 76
c ren 182 -> 77
c ren 184 -> 78
c ren 187 -> 79
c ren 189 -> 80
c ren 192 -> 81
c ren 196 -> 82
c ren 199 -> 83
c ren 201 -> 84
c ren 204 -> 85
c ren 208 -> 86
c ren 211 -> 87
c ren 213 -> 88
c ren 216 -> 89
c ren 218 -> 90
c ren 221 -> 91
c ren 225 -> 92
c ren 228 -> 93
c ren 230 -> 94
c ren 233 -> 95
c ren 237 -> 96
c ren 240 -> 97
c ren 242 -> 98
c ren 245 -> 99
c ren 252 -> 100
c ren 256 -> 101
c ren 259 -> 102
c ren 260 -> 103
c ren 262 -> 104
c ren 265 -> 105
c ren 266 -> 106
c ren 269 -> 107
c ren 270 -> 108
c ren 273 -> 109
c ren 275 -> 110
c ren 278 -> 111
c ren 282 -> 112
c ren 285 -> 113
c ren 287 -> 114
c ren 290 -> 115
c ren 291 -> 116
c ren 296 -> 117
c ren 300 -> 118
c ren 304 -> 119
c ren 307 -> 120
c ren 308 -> 121
c ren 309 -> 122
c ren 312 -> 123
c ren 314 -> 124
c ren 317 -> 125
c ren 321 -> 126
c ren 324 -> 127
c ren 326 -> 128
c ren 329 -> 129
c ren 331 -> 130
c ren 334 -> 131
c ren 338 -> 132
c ren 341 -> 133
c ren 346 -> 134
c ren 351 -> 135
c ren 355 -> 136
c ren 358 -> 137
c ren 359 -> 138
c ren 360 -> 139
c ren 363 -> 140
c ren 364 -> 141
c ren 367 -> 142
c ren 369 -> 143
c ren 372 -> 144
c ren 376 -> 145
c ren 379 -> 146
c ren 381 -> 147
c ren 384 -> 148
c ren 385 -> 149
c ren 388 -> 150
c ren 392 -> 151
c ren 395 -> 152
c ren 396 -> 153
c ren 398 -> 154
c ren 401 -> 155
c ren 404 -> 156
c ren 407 -> 157
c ren 411 -> 158
c ren 414 -> 159
c ren 415 -> 160
c ren 418 -> 161
c ren 422 -> 162
c ren 425 -> 163
c ren 430 -> 164
c ren 437 -> 165
c ren 441 -> 166
c ren 442 -> 167
c ren 443 -> 168
c ren 445 -> 169
c ren 448 -> 170
c ren 452 -> 171
c ren 455 -> 172
c ren 456 -> 173
c ren 459 -> 174
c ren 463 -> 175
c ren 466 -> 176
c ren 468 -> 177
c ren 471 -> 178
c ren 475 -> 179
p cnf 179 799
a 1 2 3 6 7 8 11 13 14 16 18 19 21 23 25 27 29 30 33 36 39 40 42 43 45 47 49 51 53 55 58 61 63 65 67 69 71 72 73 75 77 79 81 83 85 87 89 91 93 95 97 99 100 101 103 105 107 109 111 113 115 117 118 119 121 123 125 127 129 131 133 134 135 136 138 140 142 144 146 148 150 152 155 157 159 161 163 164 165 167 170 172 174 176 178 0
d 116 2 14 0
d 153 138 148 0
d 168 19 30 0
e 4 5 9 10 12 15 17 20 22 24 26 28 31 32 34 35 37 38 41 44 46 48 50 52 54 56 57 59 60 62 64 66 68 70 74 76 78 80 82 84 86 88 90 92 94 96 98 102 104 106 108 110 112 114 120 122 124 126 128 130 132 137 139 141 143 145 147 149 151 154 156 158 160 162 166 169 171 173 175 177 179 0
2 -4 0
3 -4 0
-2 -3 4 0
-1 -4 5 0
1 4 5 0
-1 4 -5 0
1 -4 -5 0
7 -9 0
8 -9 0
-7 -8 9 0
-6 -9 10 0
6 9 10 0
-6 9 -10 0
6 -9 -10 0
10 44 0
-5 -10 -12 -15 -16 -17 -18 -20 -22 -24 -26 -28 -32 -35 -36 39 -41 -42 -43 -44 0
1 6 -11 -12 0
-1 -6 11 12 0
1 -6 11 -12 0
-1 6 -11 12 0
-1 6 11 -12 0
-1 -6 -11 -12 0
1 6 11 12 0
1 -6 -11 12 0
12 44 0
-10 -17 -20 -21 -22 -23 -24 -36 -38 0
2 -13 -15 0
-2 -13 -14 15 0
-2 13 -14 -15 0
13 14 15 0
-13 14 -15 0
2 13 15 0
15 44 0
-5 -10 -12 -15 16 -17 -20 21 -22 -24 -26 -28 -32 -35 -36 -38 39 -42 43 -44 0
3 -16 -17 0
-3 -7 -16 17 0
7 105 106 0
-3 -7 16 -17 0
3 105 106 0
3 -105 -106 0
-3 -7 -105 106 0
17 44 0
-5 -10 -12 -15 -17 18 -20 -22 -24 -26 -28 -32 -35 -36 -38 39 -42 43 -44 0
8 -18 -20 0
-8 -18 -19 20 0
19 107 108 0
-8 18 -19 -20 0
8 107 108 0
8 -107 -108 0
-8 -19 -107 108 0
20 44 0
-5 -10 -12 -15 16 -17 -20 -22 23 -26 -28 -32 -35 -36 -38 39 -41 -42 43 -44 0
16 18 -21 -22 0
-16 -18 21 22 0
16 -18 21 -22 0
-16 18 -21 22 0
-16 18 21 -22 0
-16 -18 -21 -22 0
16 18 21 22 0
16 -18 -21 22 0
22 44 0
-5 -10 -12 -15 -17 18 -20 -22 23 -26 -28 -32 -35 -36 -38 39 -42 43 -44 0
1 -23 -24 0
6 23 24 0
6 -23 -24 0
-1 -6 -23 24 0
1 23 24 0
-1 -6 23 -24 0
24 44 0
-16 -17 -18 -20 36 -38 0
21 23 -25 -26 0
-21 -23 25 26 0
21 -23 25 -26 0
-21 23 -25 26 0
-21 23 25 -26 0
-21 -23 -25 -26 0
21 23 25 26 0
21 -23 -25 26 0
26 44 0
-5 -10 -12 -15 -20 -21 -22 -23 -24 -26 -28 -32 -35 36 -38 -39 -41 -42 -43 -44 0
13 25 -27 -28 0
-13 -25 27 28 0
13 -25 27 -28 0
-13 25 -27 28 0
-13 25 27 -28 0
-13 -25 -27 -28 0
13 25 27 28 0
13 -25 -27 28 0
28 44 0
-5 -10 -12 -15 -17 -20 21 -22 -24 -26 -28 -32 -35 36 -38 -39 -41 -42 43 -44 0
2 -31 0
30 -31 0
-2 -30 31 0
-29 -31 32 0
29 31 32 0
-29 31 -32 0
29 -31 -32 0
32 44 0
-5 -10 -12 -15 -17 18 -20 21 -22 -24 -26 -28 -32 -35 36 -39 -41 -42 43 -44 0
7 -34 0
14 -34 0
-7 -14 34 0
-33 -34 35 0
33 34 35 0
-33 34 -35 0
33 -34 -35 0
35 44 0
-5 -10 -12 -15 16 -17 -20 -22 23 -24 -26 -28 -32 -35 36 -38 -39 -41 -42 43 -44 0
19 -37 0
3 -37 0
-3 -19 37 0
-36 -37 38 0
36 37 38 0
-36 37 -38 0
36 -37 -38 0
38 44 0
-5 -10 -12 -15 -17 18 -20 -22 23 -24 -26 -28 -32 -35 36 -39 -41 -42 43 -44 0
8 -39 -41 0
-8 -39 -40 41 0
40 121 122 0
-8 39 -40 -41 0
8 121 122 0
8 -121 -122 0
-8 -40 -121 122 0
41 44 0
-5 -10 -12 -15 -16 -17 -20 -22 -24 -26 -28 -32 -35 -36 -38 -39 -41 42 -43 -44 0
7 -105 -106 0
-5 -10 -12 -15 -17 -20 21 -22 -24 -26 -28 -32 -35 36 -38 39 -41 42 43 -44 0
-5 -10 -12 -15 16 -17 -20 -22 -24 -26 -28 -32 -35 36 -38 39 -41 42 43 -44 0
-5 -10 -12 -15 16 -17 -20 -22 -24 -26 -28 -32 -35 -36 -38 -39 -41 42 43 -44 0
16 -20 21 -22 -36 -38 -39 -41 0
18 -20 -36 -38 -39 -41 0
16 -43 44 0
-5 -10 -12 -15 16 -17 -20 -22 23 -26 -28 -32 -35 36 -38 39 -41 42 43 -44 0
40 -121 -122 0
18 21 -43 44 0
-36 39 42 44 0
18 23 -43 44 0
-5 -10 -12 -15 -17 18 -20 -22 23 -24 -26 -28 -32 -35 36 -38 39 -41 42 43 -44 0
36 -39 42 44 0
-5 -10 -12 -15 -17 -20 -21 -22 -23 -24 -26 -28 -32 -35 36 39 -41 42 -43 -44 0
-21 -23 43 44 0
-16 -18 43 44 0
5 44 0
19 -107 -108 0
42 43 -45 -46 0
-42 -43 45 46 0
42 -43 45 -46 0
-42 43 -45 46 0
-42 43 45 -46 0
-42 -43 -45 -46 0
42 43 45 46 0
42 -43 -45 46 0
46 74 0
-33 44 -45 -46 -48 -50 -52 -54 55 -57 -60 -62 -64 -66 -68 69 -70 -71 -72 -73 -74 0
33 45 -47 -48 0
-33 -45 47 48 0
33 -45 47 -48 0
-33 45 -47 48 0
-33 45 47 -48 0
-33 -45 -47 -48 0
33 45 47 48 0
33 -45 -47 48 0
48 74 0
-33 44 -45 -46 -48 -50 -52 -54 -55 -57 -60 -62 -64 -66 -68 69 -70 -71 -72 73 -74 0
13 -49 -50 0
25 49 50 0
25 -49 -50 0
-13 -25 -49 50 0
13 49 50 0
-13 -25 49 -50 0
50 74 0
-33 44 -45 -46 -48 -50 -52 -54 -55 -57 -60 -62 -64 -66 -68 -69 -70 -71 72 -73 -74 0
47 49 -51 -52 0
-47 -49 51 52 0
47 -49 51 -52 0
-47 49 -51 52 0
-47 49 51 -52 0
-47 -49 -51 -52 0
47 49 51 52 0
47 -49 -51 52 0
52 74 0
-33 44 -45 -46 -48 -50 -52 -54 55 -57 -60 -62 -64 -66 -68 -69 -70 -71 72 73 -74 0
29 51 -53 -54 0
-29 -51 53 54 0
29 -51 53 -54 0
-29 51 -53 54 0
-29 51 53 -54 0
-29 -51 -53 -54 0
29 51 53 54 0
29 -51 -53 54 0
54 74 0
44 -46 -47 -48 -49 -50 -52 -54 55 -57 -60 -62 -64 -66 -68 69 -70 -71 -72 -73 -74 0
7 -56 0
30 -56 0
-7 -30 56 0
-55 -56 57 0
55 56 57 0
-55 56 -57 0
55 -56 -57 0
57 74 0
44 -46 -47 -48 -49 -50 -52 -54 -55 -57 -60 -62 -64 -66 -68 69 -70 -71 -72 73 -74 0
19 -59 0
14 -59 0
-14 -19 59 0
-58 -59 60 0
58 59 60 0
-58 59 -60 0
58 -59 -60 0
60 74 0
44 -46 -47 -48 -49 -50 -52 -54 -55 -57 -60 -62 -64 -66 -68 -69 -70 -71 72 -73 -74 0
3 -61 -62 0
-3 -40 -61 62 0
40 140 141 0
-3 -40 61 -62 0
3 140 141 0
3 -140 -141 0
-3 -40 -140 141 0
62 74 0
44 -46 -47 -48 -49 -50 -52 -54 55 -57 -60 -62 -64 -66 -68 -69 -70 -71 72 73 -74 0
61 -63 -64 0
-61 -63 64 0
-61 63 -64 0
61 63 64 0
64 74 0
33 44 -46 47 -48 -50 -52 -54 55 -57 -60 -62 -64 -66 -68 -69 -70 71 -72 -73 -74 0
36 42 -65 -66 0
-42 -43 -65 66 0
39 43 65 66 0
39 42 -65 -66 0
-36 -39 -65 66 0
39 43 -65 -66 0
36 42 65 66 0
36 43 65 66 0
-36 -39 65 -66 0
36 43 -65 -66 0
-42 -43 65 -66 0
66 74 0
33 44 -46 -48 -50 -52 -54 -55 -57 -60 -62 -64 -66 -68 -69 -70 71 -72 73 -74 0
63 65 -67 -68 0
-63 -65 67 68 0
63 -65 67 -68 0
-63 65 -67 68 0
-63 65 67 -68 0
-63 -65 -67 -68 0
63 65 67 68 0
63 -65 -67 68 0
68 74 0
33 44 -46 -48 -50 -52 -54 -55 -57 -60 -62 -64 -66 -68 69 -70 71 72 -73 -74 0
58 67 -69 -70 0
-58 -67 69 70 0
58 -67 69 -70 0
-58 67 -69 70 0
-58 67 69 -70 0
-58 -67 -69 -70 0
58 67 69 70 0
58 -67 -69 70 0
70 74 0
33 44 -46 47 -48 -50 -52 -54 55 -57 -60 -62 -64 -66 -68 69 -70 71 72 73 -74 0
44 45 -46 -48 49 -50 -52 -54 -55 -57 -60 -62 -64 -66 -68 -69 -70 71 -72 73 -74 0
33 44 -46 -48 49 -50 -52 -54 55 -57 -60 -62 -64 -66 -68 -69 -70 71 -72 -73 -74 0
44 45 -46 -48 49 -50 -52 -54 55 -57 -60 -62 -64 -66 -68 69 -70 71 72 73 -74 0
45 47 -71 74 0
33 47 -71 74 0
44 45 -46 -48 49 -50 -52 -54 55 -57 -60 -62 -64 -66 -68 -69 -70 71 -72 -73 -74 0
33 44 -46 -48 49 -50 -52 -54 55 -57 -60 -62 -64 -66 -68 69 -70 71 72 73 -74 0
36 39 -42 44 0
44 45 -46 47 -48 -50 -52 -54 -55 -57 -60 -62 -64 -66 -68 -69 -70 71 -72 73 -74 0
-47 -49 71 74 0
-44 74 0
44 45 -46 -48 49 -50 -52 -54 -55 -57 -60 -62 -64 -66 -68 69 -70 71 72 -73 -74 0
69 -71 72 74 0
33 44 -46 -48 49 -52 -54 -55 -57 -60 -62 -64 -66 -68 -69 -70 71 -72 73 -74 0
-36 -39 -42 44 0
44 45 -46 47 -48 -50 -52 -54 -55 -57 -60 -62 -64 -66 -68 69 -70 71 72 -73 -74 0
33 49 -71 74 0
-33 -45 71 74 0
-69 71 72 74 0
-69 -71 -72 74 0
55 72 -73 74 0
69 71 -72 74 0
55 -72 73 74 0
-55 72 73 74 0
40 -140 -141 0
-55 -72 -73 74 0
29 -75 -76 0
51 75 76 0
51 -75 -76 0
-29 -51 -75 76 0
29 75 76 0
45 49 -71 74 0
-29 -51 75 -76 0
76 102 0
-4 -9 74 -76 -77 -78 -80 -82 -84 -86 -87 -88 -90 -92 -94 -96 -98 -99 -100 -101 -102 0
19 -77 -78 0
-19 -30 -77 78 0
-19 -30 77 -78 0
30 77 78 0
30 -77 -78 0
19 77 78 0
78 102 0
-4 9 74 -76 -77 -78 -80 -82 -84 -86 -87 -88 -90 -92 -94 -96 -98 -99 -100 101 -102 0
14 -79 -80 0
-14 -40 -79 80 0
40 159 160 0
-14 -40 79 -80 0
14 159 160 0
14 -159 -160 0
-14 -40 -159 160 0
80 102 0
4 -9 74 -76 -77 -78 -80 -82 -84 -86 -87 -88 -90 -92 -94 -96 -98 -99 100 -101 -102 0
63 -81 -82 0
-63 -65 -81 82 0
65 81 82 0
65 -81 -82 0
63 81 82 0
-63 -65 81 -82 0
82 102 0
4 9 74 -76 -77 -78 -80 -82 -84 -86 -87 -88 -90 -92 -94 -96 -98 -99 100 101 -102 0
79 81 -83 -84 0
-79 -81 83 84 0
79 -81 83 -84 0
-79 81 -83 84 0
-79 81 83 -84 0
-79 -81 -83 -84 0
79 81 83 84 0
79 -81 -83 84 0
84 102 0
-4 -9 74 -76 -78 -80 -82 -84 -86 -88 -89 -90 -91 -92 -94 -96 -98 -99 -100 -101 -102 0
58 69 -85 -86 0
-69 -71 -85 86 0
67 71 85 86 0
67 69 -85 -86 0
-58 -67 -85 86 0
67 71 -85 -86 0
58 69 85 86 0
58 71 85 86 0
-58 -67 85 -86 0
58 71 -85 -86 0
-69 -71 85 -86 0
67 69 85 86 0
86 102 0
-4 9 74 -76 -78 -80 -82 -84 -86 -88 -89 -90 -91 -92 -94 -96 -98 -99 -100 101 -102 0
83 85 -87 -88 0
-83 -85 87 88 0
83 -85 87 -88 0
-83 85 -87 88 0
-83 85 87 -88 0
-83 -85 -87 -88 0
83 85 87 88 0
83 -85 -87 88 0
88 102 0
4 -9 74 -76 -78 -80 -82 -84 -86 -88 -89 -90 -91 -92 -94 -96 -98 -99 100 -101 -102 0
77 87 -89 -90 0
-77 -87 89 90 0
77 -87 89 -90 0
-77 87 -89 90 0
-77 87 89 -90 0
-77 -87 -89 -90 0
77 87 89 90 0
77 -87 -89 90 0
90 102 0
4 9 74 -76 -78 -80 -82 -84 -86 -88 -89 -90 -91 -92 -94 -96 -98 -99 100 101 -102 0
55 73 -91 -92 0
-73 -75 -91 92 0
72 75 91 92 0
72 73 -91 -92 0
-55 -72 -91 92 0
72 75 -91 -92 0
55 73 91 92 0
55 75 91 92 0
-55 -72 91 -92 0
55 75 -91 -92 0
-73 -75 91 -92 0
92 102 0
-4 -9 74 -76 77 -78 -80 -82 -84 -86 -88 89 -90 -92 -94 -96 -98 99 -100 -101 -102 0
30 -93 -94 0
-30 -40 -93 94 0
40 172 173 0
-30 -40 93 -94 0
30 172 173 0
-30 -40 -172 173 0
94 102 0
-4 9 74 -76 77 -78 -80 -82 -84 -86 -88 89 -90 -92 -94 -96 -98 99 -100 101 -102 0
79 83 -95 -96 0
-83 -85 -95 96 0
81 85 95 96 0
81 83 -95 -96 0
-79 -81 -95 96 0
81 85 -95 -96 0
79 85 95 96 0
-79 -81 95 -96 0
79 85 -95 -96 0
-83 -85 95 -96 0
81 83 95 96 0
96 102 0
4 -9 74 -76 77 -78 -80 -82 -84 -86 -88 89 -90 -92 -94 -96 -98 99 100 -101 -102 0
93 95 -97 -98 0
-93 -95 97 98 0
93 -95 97 -98 0
-93 95 -97 98 0
-93 95 97 -98 0
-93 -95 -97 -98 0
93 95 97 98 0
93 -95 -97 98 0
98 102 0
4 9 74 -76 77 -78 -80 -82 -84 -86 -88 89 -90 -92 -94 -96 -98 99 100 101 -102 0
-4 9 74 -76 -78 -80 -82 -84 -86 87 -88 -90 91 -92 -94 -96 -98 99 -100 101 -102 0
-4 -9 74 -76 77 -78 -80 -82 -84 -86 -88 -90 91 -92 -94 -96 -98 99 -100 -101 -102 0
4 9 74 -76 -78 -80 -82 -84 -86 87 -88 -90 91 -92 -94 -96 -98 99 100 101 -102 0
-4 -9 74 -76 -78 -80 -82 -84 -86 87 -88 89 -90 -92 -94 -96 -98 99 -100 -101 -102 0
87 89 -99 102 0
4 -9 74 -76 77 -78 -80 -82 -84 -86 -88 -90 91 -92 -94 -96 -98 99 100 -101 -102 0
77 89 -99 102 0
4 9 74 -76 -78 -80 -82 -84 -86 87 -88 89 -90 -92 -94 -96 -98 99 100 101 -102 0
-4 -9 74 -76 -78 -80 -82 -84 -86 87 -88 -90 91 -92 -94 -96 -98 99 -100 -101 -102 0
4 9 74 -76 77 -78 -80 -82 -84 -86 -88 -90 91 -92 -94 -96 -98 99 100 101 -102 0
-4 9 74 -76 77 -78 -80 -82 -84 -86 -88 -90 91 -92 -94 -96 -98 99 -100 101 -102 0
-4 9 74 -76 -78 -80 -82 -84 -86 87 -88 89 -90 -92 -94 -96 -98 99 -100 101 -102 0
-89 -91 99 102 0
-74 102 0
-77 -87 99 102 0
40 -159 -160 0
4 -9 74 -76 -78 -80 -82 -84 -86 87 -88 -90 91 -92 -94 -96 -98 99 100 -101 -102 0
4 -100 102 0
9 -101 102 0
-4 100 102 0
77 91 -99 102 0
-9 101 102 0
4 -9 74 -76 -78 -80 -82 -84 -86 87 -88 89 -90 -92 -94 -96 -98 99 100 -101 -102 0
100 101 -103 -104 0
-100 -101 103 104 0
100 -101 103 -104 0
-100 101 -103 104 0
-100 101 103 -104 0
-100 -101 -103 -104 0
100 101 103 104 0
100 -101 -103 104 0
104 120 0
-31 -34 -37 102 -104 -106 -108 -110 -112 113 -114 -115 -116 -117 -118 -119 -120 0
-3 -7 105 -106 0
7 16 17 0
7 -16 -17 0
3 16 17 0
106 120 0
-31 -34 37 102 -104 -106 -108 -110 -112 113 -114 -115 -116 -117 -118 119 -120 0
-8 -19 107 -108 0
18 19 20 0
-18 19 -20 0
8 18 20 0
108 120 0
-31 34 -37 102 -104 -106 -108 -110 -112 113 -114 -115 -116 -117 118 -119 -120 0
105 107 -109 -110 0
-105 -107 109 110 0
105 -107 109 -110 0
-105 107 -109 110 0
-105 107 109 -110 0
-105 -107 -109 -110 0
105 107 109 110 0
105 -107 -109 110 0
110 120 0
-31 34 37 102 -104 -106 -108 -110 -112 113 -114 -115 -116 -117 118 119 -120 0
100 -111 -112 0
101 111 112 0
101 -111 -112 0
-100 -101 -111 112 0
100 111 112 0
-100 -101 111 -112 0
112 120 0
31 -34 -37 102 -104 -106 -108 -110 -112 113 -114 -115 -116 117 -118 -119 -120 0
109 111 -113 -114 0
-109 -111 113 114 0
109 -111 113 -114 0
-109 111 -113 114 0
-109 111 113 -114 0
-109 -111 -113 -114 0
109 111 113 114 0
109 -111 -113 114 0
114 120 0
31 -34 37 102 -104 -106 -108 -110 -112 113 -114 -115 -116 117 -118 119 -120 0
-31 -34 37 102 -104 -106 -108 -110 -112 113 -114 115 116 -117 -118 119 -120 0
-31 -34 -37 102 -104 -106 -108 -110 -112 -113 -114 115 -116 -117 -118 -119 -120 0
31 34 37 102 -104 -106 -108 -110 -112 -113 -114 -115 116 117 118 119 -120 0
31 34 -37 102 -104 -106 -108 -110 -112 113 -114 -115 -116 117 118 -119 -120 0
-31 -34 37 102 -104 -106 -108 -110 -112 -113 -114 -115 116 -117 -118 119 -120 0
31 34 37 102 -104 -106 -108 -110 -112 113 -114 -115 -116 117 118 119 -120 0
31 -34 37 102 -104 -106 -108 -110 -112 -113 -114 115 -116 117 -118 119 -120 0
-31 34 -37 102 -104 -106 -108 -110 -112 -113 -114 -115 116 -117 118 -119 -120 0
-31 -34 -37 102 -104 -106 -108 -110 -112 -113 -114 -115 116 -117 -118 -119 -120 0
-31 34 37 102 -104 -106 -108 -110 -112 -113 -114 -115 116 -117 118 119 -120 0
31 34 -37 102 -104 -106 -108 -110 -112 -113 -114 115 -116 117 118 -119 -120 0
113 115 -116 120 0
31 -34 -37 102 -104 -106 -108 -110 -112 -113 -114 -115 116 117 -118 -119 -120 0
31 -117 120 0
-31 -34 37 102 -104 -106 -108 -110 -112 -113 -114 115 -116 -117 -118 119 -120 0
31 -34 37 102 -104 -106 -108 -110 -112 -113 -114 -115 116 117 -118 119 -120 0
-31 34 -37 102 -104 -106 -108 -110 -112 -113 -114 115 -116 -117 118 -119 -120 0
31 34 37 102 -104 -106 -108 -110 -112 -113 -114 115 -116 117 118 119 -120 0
-31 34 37 102 -104 -106 -108 -110 -112 -113 -114 115 -116 -117 118 119 -120 0
-31 -34 -37 102 -104 -106 -108 -110 -112 113 -114 115 116 -117 -118 -119 -120 0
-113 115 116 120 0
31 -34 -37 102 -104 -106 -108 -110 -112 -113 -114 115 -116 117 -118 -119 -120 0
34 -118 120 0
-31 34 -37 102 -104 -106 -108 -110 -112 113 -114 115 116 -117 118 -119 -120 0
37 -119 120 0
-34 118 120 0
31 -34 -37 102 -104 -106 -108 -110 -112 113 -114 115 116 117 -118 -119 -120 0
-37 119 120 0
31 34 -37 102 -104 -106 -108 -110 -112 -113 -114 -115 116 117 118 -119 -120 0
-31 117 120 0
-31 34 37 102 -104 -106 -108 -110 -112 113 -114 115 116 -117 118 119 -120 0
-8 -40 121 -122 0
39 40 41 0
-39 40 -41 0
8 39 41 0
122 137 0
-56 -59 117 120 -122 -124 -126 -128 -129 -130 131 -132 -133 -134 -135 -136 -137 0
-113 -115 -116 120 0
119 121 -123 -124 0
-119 -121 123 124 0
119 -121 123 -124 0
-119 121 -123 124 0
-119 121 123 -124 0
-119 -121 -123 -124 0
119 121 123 124 0
119 -121 -123 124 0
124 137 0
-56 59 117 120 -122 -124 -126 -128 -129 -130 131 -132 -133 -134 -135 136 -137 0
31 34 37 102 -104 -106 -108 -110 -112 113 -114 115 116 117 118 119 -120 0
105 109 -125 -126 0
-109 -111 -125 126 0
107 111 125 126 0
107 109 -125 -126 0
-105 -107 -125 126 0
107 111 -125 -126 0
105 109 125 126 0
105 111 125 126 0
-102 120 0
-105 -107 125 -126 0
105 111 -125 -126 0
-109 -111 125 -126 0
107 109 125 126 0
126 137 0
56 -59 117 120 -122 -124 -126 -128 -129 -130 131 -132 -133 -134 135 -136 -137 0
123 125 -127 -128 0
-123 -125 127 128 0
123 -125 127 -128 0
-123 125 -127 128 0
-123 125 127 -128 0
-123 -125 -127 -128 0
123 125 127 128 0
123 -125 -127 128 0
128 137 0
56 59 117 120 -122 -124 -126 -128 -129 -130 131 -132 -133 -134 135 136 -137 0
118 127 -129 -130 0
-118 -127 129 130 0
118 -127 129 -130 0
-118 127 -129 130 0
-118 127 129 -130 0
-118 -127 -129 -130 0
118 127 129 130 0
118 -127 -129 130 0
130 137 0
-56 -59 -117 120 -122 -124 -126 -128 -129 -130 131 -132 -133 134 -135 -136 -137 0
113 -115 116 120 0
113 -131 -132 0
116 -131 -132 0
-113 -116 -131 132 0
113 131 132 0
-113 -116 131 -132 0
116 131 132 0
132 137 0
-56 59 -117 120 -122 -124 -126 -128 -129 -130 131 -132 -133 134 -135 136 -137 0
-56 59 -117 120 -122 -124 -126 -128 129 -130 131 -132 133 -134 -135 136 -137 0
-56 -59 -117 120 -122 -124 -126 -128 -129 -130 -131 -132 133 -134 -135 -136 -137 0
56 59 -117 120 -122 -124 -126 -128 129 -130 -131 -132 -133 134 135 136 -137 0
56 -59 -117 120 -122 -124 -126 -128 -129 -130 131 -132 -133 134 135 -136 -137 0
-56 59 117 120 -122 -124 -126 -128 129 -130 -131 -132 -133 -134 -135 136 -137 0
56 59 -117 120 -122 -124 -126 -128 -129 -130 131 -132 -133 134 135 136 -137 0
-56 -59 117 120 -122 -124 -126 -128 129 -130 131 -132 133 134 -135 -136 -137 0
56 -59 117 120 -122 -124 -126 -128 129 -130 -131 -132 -133 -134 135 -136 -137 0
-56 -59 117 120 -122 -124 -126 -128 129 -130 -131 -132 -133 -134 -135 -136 -137 0
56 59 117 120 -122 -124 -126 -128 129 -130 -131 -132 -133 -134 135 136 -137 0
-129 -131 -133 137 0
-56 -59 -117 120 -122 -124 -126 -128 129 -130 131 -132 133 -134 -135 -136 -137 0
-56 -59 117 120 -122 -124 -126 -128 -129 -130 -131 -132 133 134 -135 -136 -137 0
56 59 -117 120 -122 -124 -126 -128 -129 -130 -131 -132 133 -134 135 136 -137 0
-56 -59 -117 120 -122 -124 -126 -128 129 -130 -131 -132 -133 134 -135 -136 -137 0
-56 59 -117 120 -122 -124 -126 -128 -129 -130 -131 -132 133 -134 -135 136 -137 0
-56 59 -117 120 -122 -124 -126 -128 129 -130 -131 -132 -133 134 -135 136 -137 0
56 59 117 120 -122 -124 -126 -128 -129 -130 -131 -132 133 134 135 136 -137 0
-117 133 134 137 0
-129 131 133 137 0
-56 59 117 120 -122 -124 -126 -128 -129 -130 -131 -132 133 134 -135 136 -137 0
-117 -133 -134 137 0
56 -59 117 120 -122 -124 -126 -128 -129 -130 -131 -132 133 134 135 -136 -137 0
117 -133 134 137 0
56 -59 -117 120 -122 -124 -126 -128 129 -130 -131 -132 -133 134 135 -136 -137 0
-56 59 117 120 -122 -124 -126 -128 129 -130 131 -132 133 134 -135 136 -137 0
129 -131 133 137 0
56 -135 137 0
56 59 -117 120 -122 -124 -126 -128 129 -130 131 -132 133 -134 135 136 -137 0
59 -136 137 0
-56 135 137 0
117 133 -134 137 0
-59 136 137 0
56 -59 -117 120 -122 -124 -126 -128 129 -130 131 -132 133 -134 135 -136 -137 0
56 -59 -117 120 -122 -124 -126 -128 -129 -130 -131 -132 133 -134 135 -136 -137 0
-136 -138 139 0
136 138 139 0
136 -138 -139 0
-136 138 -139 0
139 166 0
-136 137 -139 -141 -143 -145 -146 -147 -149 -151 -154 -156 -158 -159 -160 161 -162 -163 -164 165 -166 0
56 59 117 120 -122 -124 -126 -128 129 -130 131 -132 133 134 135 136 -137 0
-3 -40 140 -141 0
40 61 62 0
40 -61 -62 0
3 61 62 0
141 166 0
137 -139 -141 -143 -145 -147 -149 -150 -151 -153 -154 -156 -158 -159 -160 161 -162 -163 -164 165 -166 0
31 -34 37 102 -104 -106 -108 -110 -112 113 -114 115 116 117 -118 119 -120 0
140 -142 -143 0
-140 -142 143 0
-140 142 -143 0
140 142 143 0
143 166 0
136 137 -139 -141 -143 -145 -147 -149 150 -151 -154 -156 -158 -159 -160 161 -162 -163 164 -165 -166 0
119 123 -144 -145 0
-123 -125 -144 145 0
121 125 144 145 0
121 123 -144 -145 0
-119 -121 -144 145 0
121 125 -144 -145 0
119 123 144 145 0
119 125 144 145 0
87 91 -99 102 0
-119 -121 144 -145 0
119 125 -144 -145 0
-123 -125 144 -145 0
121 123 144 145 0
145 166 0
137 -139 -141 -143 -145 146 -147 -149 150 -151 -154 -156 -158 -159 -160 161 -162 -163 164 -165 -166 0
129 131 -133 137 0
142 144 -146 -147 0
-142 -144 146 147 0
142 -144 146 -147 0
-142 144 -146 147 0
-142 144 146 -147 0
-142 -144 -146 -147 0
142 144 146 147 0
142 -144 -146 147 0
147 166 0
136 137 -139 -141 -143 -145 -147 -149 -151 153 -154 -156 -158 -159 -160 161 -162 -163 164 -165 -166 0
-146 -148 149 0
146 148 149 0
146 -148 -149 0
-146 148 -149 0
149 166 0
137 -139 -141 -143 -145 146 -147 -149 -151 153 -154 -156 -158 -159 -160 161 -162 -163 164 -165 -166 0
118 129 -150 -151 0
-129 -131 -150 151 0
127 131 150 151 0
127 129 -150 -151 0
-118 -127 -150 151 0
127 131 -150 -151 0
118 129 150 151 0
118 131 150 151 0
-118 -127 150 -151 0
118 131 -150 -151 0
-129 -131 150 -151 0
127 129 150 151 0
151 166 0
150 -152 153 -154 0
-150 152 -153 154 0
-150 152 153 -154 0
150 -152 -153 154 0
150 152 -153 -154 0
-150 -152 -153 -154 0
150 152 153 154 0
-150 -152 153 154 0
154 166 0
137 -139 -141 -143 -145 -147 -149 -150 -151 -153 -154 -156 -158 159 -160 -161 -162 -163 -164 165 -166 0
-135 155 156 0
135 152 -155 156 0
135 152 155 -156 0
-152 155 156 0
-152 -155 -156 0
-135 -155 -156 0
156 166 0
136 137 -139 -141 -143 -145 -147 -149 150 -151 -154 -156 -158 159 -160 -161 -162 -163 164 -165 -166 0
117 -157 -158 0
133 -157 -158 0
-117 -133 -157 158 0
117 157 158 0
-117 -133 157 -158 0
133 157 158 0
158 166 0
137 -139 -141 -143 -145 146 -147 -149 150 -151 -154 -156 -158 159 -160 -161 -162 -163 164 -165 -166 0
-14 -40 159 -160 0
40 79 80 0
40 -79 -80 0
14 79 80 0
160 166 0
136 137 -139 -141 -143 -145 -147 -149 -151 153 -154 -156 -158 159 -160 -161 -162 -163 164 -165 -166 0
142 -161 -162 0
-142 -144 -161 162 0
142 161 162 0
144 161 162 0
144 -161 -162 0
-142 -144 161 -162 0
162 166 0
137 -139 -141 -143 -145 146 -147 -149 -151 153 -154 -156 -158 159 -160 -161 -162 -163 164 -165 -166 0
31 34 -37 102 -104 -106 -108 -110 -112 113 -114 115 116 117 118 -119 -120 0
136 137 -139 -141 -143 -145 -147 -149 150 -151 -154 -156 -158 159 -160 161 -162 163 164 165 -166 0
137 -139 -141 -143 -145 -147 -149 -150 -151 -153 -154 -156 -158 159 -160 161 -162 163 -164 -165 -166 0
137 -139 -141 -143 -145 146 -147 -149 150 -151 -154 -156 -158 -159 -160 -161 -162 163 164 165 -166 0
137 -139 -141 -143 -145 -147 -149 -150 -151 -153 -154 -156 -158 -159 -160 -161 -162 163 -164 -165 -166 0
136 137 -139 -141 -143 -145 -147 -149 -151 153 -154 -156 -158 -159 -160 -161 -162 163 164 165 -166 0
136 137 -139 -141 -143 -145 -147 -149 150 -151 -154 -156 -158 -159 -160 -161 -162 163 164 165 -166 0
137 -139 -141 -143 -145 146 -147 -149 -151 153 -154 -156 -158 -159 -160 -161 -162 163 164 165 -166 0
-137 166 0
136 137 -139 -141 -143 -145 -147 -149 -151 153 -154 -156 -158 159 -160 161 -162 163 164 165 -166 0
56 -59 117 120 -122 -124 -126 -128 129 -130 131 -132 133 134 135 -136 -137 0
-120 137 0
-136 137 -139 -141 -143 -145 -146 -147 -149 -151 -154 -156 -158 159 -160 161 -162 163 -164 -165 -166 0
137 -139 -141 -143 -145 146 -147 -149 150 -151 -154 -156 -158 159 -160 161 -162 163 164 165 -166 0
137 -139 -141 -143 -145 146 -147 -149 -151 153 -154 -156 -158 159 -160 161 -162 163 164 165 -166 0
-165 167 -168 169 0
165 -167 -168 169 0
165 167 168 169 0
-165 -167 168 169 0
-97 -99 166 -169 -171 -173 174 -175 -177 178 -179 0
-155 -157 -170 171 0
152 157 170 171 0
-135 -152 -170 171 0
135 155 170 171 0
135 157 170 171 0
152 155 170 171 0
93 99 166 -169 -171 -172 -173 -174 -175 -177 -179 0
40 93 94 0
40 -93 -94 0
30 93 94 0
95 99 166 -169 -171 -172 -173 -174 -175 -177 -179 0
-163 -164 -174 175 0
161 164 174 175 0
-159 -161 -174 175 0
159 163 174 175 0
159 164 174 175 0
93 97 166 -169 -171 -172 -173 -174 -175 -177 -179 0
-172 -174 176 177 0
-172 174 -176 177 0
172 174 176 177 0
172 -174 -176 177 0
-167 -170 -178 179 0
168 170 178 179 0
-165 -168 -178 179 0
165 170 178 179 0
167 168 178 179 0
-11 103 166 -169 -171 -173 -175 -177 -179 0
11 -103 166 -169 -171 -173 -175 -177 -179 0
27 -115 166 -169 -171 -173 -175 -177 -179 0
-27 115 166 -169 -171 -173 -175 -177 -179 0
73 75 155 -157 166 -169 -171 -173 -175 -177 -179 0
53 -134 166 -169 -171 -173 -175 -177 -179 0
-53 134 166 -169 -171 -173 -175 -177 -179 0
-73 75 -155 -157 166 -169 -171 -173 -175 -177 -179 0
-73 75 155 157 166 -169 -171 -173 -175 -177 -179 0
73 -75 -155 -157 166 -169 -171 -173 -175 -177 -179 0
89 91 166 167 -169 -170 -171 -173 -175 -177 -179 0
-73 -75 -155 157 166 -169 -171 -173 -175 -177 -179 0
73 -75 155 157 166 -169 -171 -173 -175 -177 -179 0
-89 91 166 -167 -169 -170 -171 -173 -175 -177 -179 0
-89 91 166 167 -169 170 -171 -173 -175 -177 -179 0
89 -91 166 -167 -169 -170 -171 -173 -175 -177 -179 0
73 75 -155 157 166 -169 -171 -173 -175 -177 -179 0
-73 -75 155 -157 166 -169 -171 -173 -175 -177 -179 0
97 99 166 -169 -171 -173 -175 176 -177 -178 -179 0
-89 -91 166 -167 -169 170 -171 -173 -175 -177 -179 0
89 -91 166 167 -169 170 -171 -173 -175 -177 -179 0
-97 99 166 -169 -171 -173 -175 -176 -177 -178 -179 0
-97 99 166 -169 -171 -173 -175 176 -177 178 -179 0
97 -99 166 -169 -171 -173 -175 -176 -177 -178 -179 0
89 91 166 -167 -169 170 -171 -173 -175 -177 -179 0
-89 -91 166 167 -169 -170 -171 -173 -175 -177 -179 0
-97 -99 166 -169 -171 172 -173 -175 -177 178 -179 0
-93 -95 166 -169 -171 172 -173 -175 176 -177 -179 0
-97 -99 166 -169 -171 -173 -175 176 -177 -178 -179 0
97 -99 166 -169 -171 -173 -175 176 -177 178 -179 0
93 99 166 -169 -171 -173 -175 -176 -177 -178 -179 0
95 97 166 -169 -171 -172 -173 -174 -175 -177 -179 0
-97 -99 166 -169 -171 -173 -175 -176 -177 178 -179 0
95 97 166 -169 -171 -173 -175 -176 -177 -178 -179 0
-93 -95 166 -169 -171 172 -173 -175 -177 178 -179 0
-97 -99 166 -169 -171 172 -173 -175 176 -177 -179 0
-93 -95 166 -169 -171 -173 174 -175 -177 178 -179 0
93 97 166 -169 -171 -173 -175 -176 -177 -178 -179 0
97 99 166 -169 -171 -173 -175 -176 -177 178 -179 0
95 99 166 -169 -171 -173 -175 -176 -177 -178 -179 0
